p edge 50 491
e 1 4
e 1 6
e 1 7
e 1 10
e 1 16
e 1 19
e 1 25
e 1 26
e 1 28
e 1 34
e 1 36
e 1 37
e 1 38
e 1 44
e 1 46
e 1 47
e 2 4
e 2 5
e 2 6
e 2 10
e 2 15
e 2 16
e 2 18
e 2 19
e 2 21
e 2 23
e 2 24
e 2 28
e 2 32
e 2 35
e 2 37
e 2 39
e 2 40
e 2 42
e 2 43
e 2 49
e 3 6
e 3 8
e 3 9
e 3 10
e 3 11
e 3 13
e 3 19
e 3 20
e 3 22
e 3 24
e 3 26
e 3 28
e 3 29
e 3 32
e 3 33
e 3 34
e 3 36
e 3 38
e 3 42
e 3 43
e 3 47
e 3 48
e 3 50
e 4 5
e 4 6
e 4 8
e 4 9
e 4 10
e 4 15
e 4 16
e 4 17
e 4 19
e 4 21
e 4 23
e 4 25
e 4 27
e 4 32
e 4 34
e 4 36
e 4 37
e 4 42
e 4 43
e 4 44
e 4 50
e 5 7
e 5 11
e 5 12
e 5 14
e 5 15
e 5 19
e 5 22
e 5 25
e 5 31
e 5 32
e 5 34
e 5 37
e 5 41
e 5 43
e 5 48
e 5 49
e 6 10
e 6 12
e 6 14
e 6 19
e 6 24
e 6 25
e 6 27
e 6 29
e 6 33
e 6 34
e 6 36
e 6 38
e 6 41
e 6 43
e 6 44
e 6 45
e 6 47
e 6 50
e 7 9
e 7 15
e 7 20
e 7 25
e 7 27
e 7 30
e 7 33
e 7 35
e 7 36
e 7 37
e 7 42
e 7 47
e 7 48
e 7 49
e 8 9
e 8 11
e 8 15
e 8 16
e 8 17
e 8 18
e 8 21
e 8 22
e 8 23
e 8 24
e 8 28
e 8 37
e 8 39
e 8 42
e 8 46
e 8 47
e 9 10
e 9 12
e 9 14
e 9 15
e 9 17
e 9 18
e 9 20
e 9 21
e 9 24
e 9 27
e 9 31
e 9 32
e 9 34
e 9 36
e 9 37
e 9 38
e 9 39
e 9 40
e 9 41
e 9 42
e 9 45
e 9 46
e 9 49
e 9 50
e 10 12
e 10 13
e 10 14
e 10 16
e 10 17
e 10 21
e 10 23
e 10 24
e 10 31
e 10 32
e 10 33
e 10 34
e 10 37
e 10 39
e 10 40
e 10 41
e 10 47
e 10 48
e 10 49
e 10 50
e 11 12
e 11 17
e 11 18
e 11 19
e 11 23
e 11 24
e 11 29
e 11 33
e 11 39
e 11 41
e 11 43
e 11 45
e 11 50
e 12 14
e 12 15
e 12 17
e 12 19
e 12 22
e 12 26
e 12 28
e 12 30
e 12 32
e 12 36
e 12 37
e 12 39
e 12 40
e 12 43
e 12 44
e 12 45
e 12 49
e 13 15
e 13 21
e 13 22
e 13 24
e 13 34
e 13 36
e 13 37
e 13 42
e 13 43
e 13 47
e 13 48
e 13 49
e 13 50
e 14 15
e 14 16
e 14 17
e 14 21
e 14 23
e 14 26
e 14 28
e 14 32
e 14 37
e 14 40
e 14 42
e 14 44
e 14 45
e 14 47
e 14 48
e 15 18
e 15 25
e 15 30
e 15 31
e 15 32
e 15 33
e 15 34
e 15 36
e 15 37
e 15 39
e 15 46
e 15 48
e 15 50
e 16 20
e 16 21
e 16 25
e 16 27
e 16 34
e 16 35
e 16 37
e 16 40
e 16 45
e 16 46
e 16 47
e 17 22
e 17 26
e 17 27
e 17 28
e 17 30
e 17 33
e 17 36
e 17 39
e 17 42
e 17 43
e 17 46
e 17 48
e 18 19
e 18 20
e 18 21
e 18 23
e 18 25
e 18 31
e 18 36
e 18 37
e 18 39
e 18 41
e 18 48
e 18 50
e 19 20
e 19 23
e 19 27
e 19 30
e 19 34
e 19 37
e 19 38
e 19 42
e 19 43
e 19 44
e 19 46
e 20 25
e 20 27
e 20 30
e 20 31
e 20 38
e 20 41
e 20 43
e 20 45
e 20 47
e 20 50
e 21 23
e 21 24
e 21 25
e 21 28
e 21 32
e 21 33
e 21 34
e 21 36
e 21 37
e 21 41
e 21 44
e 21 45
e 21 48
e 22 26
e 22 28
e 22 31
e 22 35
e 22 38
e 22 40
e 22 41
e 22 43
e 22 44
e 22 47
e 22 49
e 23 24
e 23 27
e 23 28
e 23 30
e 23 34
e 23 38
e 23 40
e 23 42
e 23 44
e 23 49
e 23 50
e 24 26
e 24 27
e 24 29
e 24 30
e 24 31
e 24 34
e 24 35
e 24 36
e 24 38
e 24 40
e 24 41
e 24 47
e 24 48
e 25 28
e 25 29
e 25 35
e 25 37
e 25 38
e 25 44
e 25 48
e 25 49
e 25 50
e 26 29
e 26 34
e 26 35
e 26 36
e 26 39
e 26 40
e 26 44
e 26 46
e 26 47
e 26 48
e 26 50
e 27 29
e 27 30
e 27 32
e 27 33
e 27 36
e 27 39
e 27 40
e 27 42
e 27 44
e 27 46
e 27 47
e 27 48
e 27 49
e 28 31
e 28 32
e 28 33
e 28 36
e 28 39
e 28 45
e 29 30
e 29 31
e 29 32
e 29 33
e 29 38
e 29 39
e 29 41
e 29 42
e 29 43
e 29 44
e 29 45
e 29 49
e 29 50
e 30 31
e 30 32
e 30 33
e 30 41
e 30 42
e 30 43
e 30 46
e 30 48
e 30 50
e 31 38
e 31 40
e 31 42
e 31 46
e 32 33
e 32 35
e 32 36
e 32 40
e 32 42
e 32 43
e 32 44
e 32 46
e 33 36
e 33 41
e 33 43
e 33 45
e 34 35
e 34 37
e 34 39
e 34 44
e 34 45
e 34 47
e 34 48
e 34 49
e 34 50
e 35 36
e 35 39
e 35 40
e 35 42
e 35 46
e 36 38
e 36 39
e 36 43
e 36 44
e 36 45
e 36 46
e 37 41
e 37 45
e 37 47
e 37 48
e 37 50
e 38 40
e 38 47
e 39 40
e 39 49
e 40 41
e 40 44
e 40 47
e 41 42
e 41 43
e 41 48
e 42 43
e 42 44
e 42 46
e 43 45
e 43 47
e 43 49
e 44 45
e 44 49
e 45 46
e 45 47
e 45 49
e 45 50
e 46 47
e 46 48
e 47 48
e 47 50